Version identifier: 22.1.0.0 | 2022-03-09 | 1a383f8ce
CPXPARAM_Threads                                 1
CPXPARAM_MIP_Strategy_VariableSelect             3
CPXPARAM_TimeLimit                               600
Tried aggregator 1 time.
Reduced MIP has 1825 rows, 10500 columns, and 83110 nonzeros.
Reduced MIP has 9000 binaries, 1500 generals, 0 SOSs, and 0 indicators.
Presolve time = 0.04 sec. (32.11 ticks)
Tried aggregator 1 time.
Detecting symmetries...
Reduced MIP has 1825 rows, 10500 columns, and 83110 nonzeros.
Reduced MIP has 9000 binaries, 1500 generals, 0 SOSs, and 0 indicators.
Presolve time = 0.05 sec. (47.62 ticks)
Probing time = 0.01 sec. (4.54 ticks)
Clique table members: 304.
MIP emphasis: balance optimality and feasibility.
MIP search method: dynamic search.
Parallel mode: none, using 1 thread.
Root relaxation solution time = 1.77 sec. (1852.83 ticks)

        Nodes                                         Cuts/
   Node  Left     Objective  IInf  Best Integer    Best Bound    ItCnt     Gap

      0     0        0.0000  1423                      0.0000     5454         
      0     0        0.0000   695                 ZeroHalf: 2     5882         
      0     0        0.0000  1091                   Cuts: 114    10363         
Detecting symmetries...
      0     2        0.0000   375                      0.0000    10363         
Elapsed time = 42.25 sec. (45842.92 ticks, tree = 0.01 MB, solutions = 0)
      1     3        0.0000   673                      0.0000    18552         
      2     4        0.0000   598                      0.0000    22282         
      3     5        0.0000   554                      0.0000    27789         
      4     6        0.0000   646                      0.0000    30179         
      5     7        0.0000   887                      0.0000    41615         
      6     6        cutoff                            0.0000    48616         
      7     7        0.0000   644                      0.0000    52714         
      8     8        0.0000   678                      0.0000    61043         
      9     9        0.0000   635                      0.0000    64347         
     10    10        0.0000   632                      0.0000    77146         
Elapsed time = 63.58 sec. (68291.91 ticks, tree = 0.10 MB, solutions = 0)
     11    11        0.0000   652                      0.0000    80417         
     13    13        0.0000   911                      0.0000    85890         
     15    15        0.0000   703                      0.0000    89602         
     16    16        0.0000   640                      0.0000    94134         
     17    17        0.0000   570                      0.0000   102369         
     18    18        0.0000   600                      0.0000   110525         
     19    19        0.0000   667                      0.0000   114472         
     20    20        0.0000   928                      0.0000   119547         
     21    21        0.0000   531                      0.0000   123089         
     23    23        0.0000   593                      0.0000   129004         
Elapsed time = 89.19 sec. (95471.52 ticks, tree = 0.21 MB, solutions = 0)
     24    24        0.0000   585                      0.0000   133707         
     25    25        0.0000   733                      0.0000   136167         
     27    27        0.0000   668                      0.0000   140230         
     28    28        0.0000   848                      0.0000   147195         
     29    29        0.0000   915                      0.0000   151616         
     30    30        0.0000   656                      0.0000   151875         
     32    32        0.0000   588                      0.0000   156319         
     33    33       -0.0000   641                      0.0000   159259         
     35    35       -0.0000   740                      0.0000   159750         
     36    36        0.0000   742                      0.0000   161935         
Elapsed time = 110.98 sec. (117885.81 ticks, tree = 0.37 MB, solutions = 0)
     38    38        0.0000   694                      0.0000   164467         
     40    40       -0.0000   689                      0.0000   164540         
     41    41        0.0000   644                      0.0000   166534         
     43    43        0.0000   687                      0.0000   170026         
     44    44       -0.0000   580                      0.0000   172763         
     45    45       -0.0000   615                      0.0000   175597         
     46    46       -0.0000   583                      0.0000   177278         
     47    47        0.0000   585                      0.0000   179979         
     48    48       -0.0000   607                      0.0000   182749         
     50    50        0.0000   532                      0.0000   187280         
Elapsed time = 127.48 sec. (134897.34 ticks, tree = 0.59 MB, solutions = 0)
     52    52       -0.0000   828                      0.0000   189790         
     53    53        0.0000   675                      0.0000   193482         
     54    54        0.0000   703                      0.0000   195256         
     56    56        0.0000   699                      0.0000   198422         
     57    57       -0.0000  1215                      0.0000   204284         
     59    59       -0.0000   685                      0.0000   204722         
     60    60       -0.0000  1093                      0.0000   208978         
     62    62       -0.0000   626                      0.0000   211921         
     64    64        0.0000   950                      0.0000   215954         
     66    66        0.0000   689                      0.0000   219801         
Elapsed time = 146.60 sec. (154616.00 ticks, tree = 0.85 MB, solutions = 0)
     68    68        0.0000   839                      0.0000   224425         
     70    70       -0.0000   512                      0.0000   227025         
     72    72       -0.0000   469                      0.0000   232065         
     73    73       -0.0000   448                      0.0000   234181         
     74    74        0.0000   642                      0.0000   238323         
     75    75       -0.0000  1010                      0.0000   248017         
     77    77        0.0000   517                      0.0000   248950         
     78    78       -0.0000   571                      0.0000   252125         
     79    79       -0.0000   466                      0.0000   254492         
     80    80        0.0000   517                      0.0000   256097         
Elapsed time = 166.12 sec. (175069.82 ticks, tree = 1.05 MB, solutions = 0)
     81    81        0.0000   488                      0.0000   259087         
     82    82        0.0000   473                      0.0000   262255         
     83    83       -0.0000   545                      0.0000   265665         
     84    84       -0.0000   490                      0.0000   268245         
     86    86        0.0000   645                      0.0000   272219         
     88    88       -0.0000   554                      0.0000   272984         
     90    90        0.0000   489                      0.0000   276238         
     92    92        0.0000   489                      0.0000   280438         
     93    93       -0.0000   486                      0.0000   282093         
     95    95        0.0000   477                      0.0000   285783         
Elapsed time = 183.32 sec. (192791.75 ticks, tree = 1.31 MB, solutions = 0)
     96    96        0.0000   468                      0.0000   287220         
     97    97       -0.0000   453                      0.0000   288825         
     98    98        0.0000   407                      0.0000   292219         
     99    99        0.0000   384                      0.0000   296016         
    100   100       -0.0000   353                      0.0000   299359         
    101   101       -0.0000   422                      0.0000   302651         
    102   102        0.0000   610                      0.0000   307379         
    104   104        0.0000   671                      0.0000   313043         
    106   106       -0.0000   419                      0.0000   313357         
    107   107       -0.0000   560                      0.0000   316366         
Elapsed time = 200.66 sec. (210547.92 ticks, tree = 1.49 MB, solutions = 0)
    109   108        0.0000   382                      0.0000   318172         
    111   110        0.0000   380                      0.0000   321039         
    113   112        0.0000   628                      0.0000   325726         
    114   113        0.0000   550                      0.0000   328952         
    115   114       -0.0000   380                      0.0000   330653         
    117   116       -0.0000   730                      0.0000   335264         
    118   117        0.0000   416                      0.0000   336635         
    119   118       -0.0000   406                      0.0000   340638         
    120   119       -0.0000   399                      0.0000   342954         
    121   120       -0.0000   389                      0.0000   344834         
Elapsed time = 216.54 sec. (226872.67 ticks, tree = 1.73 MB, solutions = 0)
    123   122        0.0000   755                      0.0000   348986         
    124   123        0.0000   355                      0.0000   351390         
    126   125       -0.0000   572                      0.0000   358280         
    127   126       -0.0000   501                      0.0000   363041         
    128   127       -0.0000   563                      0.0000   367855         
    130   129       -0.0000   532                      0.0000   369196         
    131   130        0.0000   486                      0.0000   371703         
    132   131        0.0000   498                      0.0000   374217         
    134   133        0.0000   384                      0.0000   376374         
    138   137       -0.0000   337                      0.0000   384681         
Elapsed time = 237.70 sec. (248633.56 ticks, tree = 2.01 MB, solutions = 0)
    141   140        0.0000   299                      0.0000   392297         
    145   144        0.0000   394                      0.0000   404130         
    148   147       -0.0000   313                      0.0000   414434         
    151   150       -0.0000   308                      0.0000   423675         
    155   154       -0.0000   363                      0.0000   433114         
    160   159        0.0000   435                      0.0000   441281         
    164   163        0.0000   432                      0.0000   450850         
    169   168        0.0000   444                      0.0000   460275         
    175   174        0.0000   280                      0.0000   465955         
    181   180        0.0000   430                      0.0000   474281         
Elapsed time = 283.89 sec. (295034.50 ticks, tree = 2.79 MB, solutions = 0)
    187   186       -0.0000   373                      0.0000   485818         
    192   191        0.0000   202                      0.0000   493926         
    197   196        0.0000   232                      0.0000   501958         
    201   200        0.0000   235                      0.0000   509823         
    205   204       -0.0000   255                      0.0000   519998         
    210   209        0.0000   297                      0.0000   528512         
    214   213        4.5000   487                      0.0000   539303         
    220   219        0.0000   378                      0.0000   545616         
    225   224       -0.0000   413                      0.0000   554285         
    230   229        0.3333   347                      0.0000   563260         
Elapsed time = 329.46 sec. (340553.12 ticks, tree = 3.71 MB, solutions = 0)
    235   234        0.0000   330                      0.0000   573107         
    238   237        9.0000   343                      0.0000   582597         
    243   242       -0.0000   449                      0.0000   590754         
    248   247        0.1667   380                      0.0000   601838         
    253   252        0.5000   342                      0.0000   610591         
    259   258        0.0000   286                      0.0000   617691         
    263   262        0.0715   443                      0.0000   629875         
    271   270        0.3273   533                      0.0000   635770         
    279   278        1.1056   542                      0.0000   639970         
    280   279        0.9032   533                      0.0000   640334         
Elapsed time = 374.53 sec. (385601.36 ticks, tree = 4.62 MB, solutions = 0)
    287   286       11.1270   438                      0.0000   648034         
    295   292    infeasible                            0.0000   654733         
    303   300        2.4503   459                      0.0000   656448         
    309   306       10.0000   247                      0.0000   662961         
    313   310       10.0000   350                      0.0000   671650         
    318   315       10.0000   315                      0.0000   682208         
    324   319      548.1119   493                      0.0000   693324         
    330   325   -19043.9123   500                      0.0000   700566         
    338   327   4.91963e+07   431                      0.0000   711186         
    340   329  2357370.2546   347                      0.0000   713721         
Elapsed time = 470.57 sec. (477060.28 ticks, tree = 5.53 MB, solutions = 0)
    342   331  2359803.0000   262                      0.0000   786128         
    343   330        cutoff                            0.0000   799033         
    344   329    infeasible                            0.0000   827830         
    351   336        1.7149   571                      0.0000   833809         
    359   342        3.1230   510                      0.0000   838228         
    366   349        8.5000   394                      0.0000   842448         
    373   356       10.0000   302                      0.0000   847999         
    378   361       15.4167   339                      0.0000   859467         
    385   368      104.6786   349                      0.0000   865246         
    395   378   262217.0000   319                      0.0000   871740         
Elapsed time = 540.94 sec. (544409.66 ticks, tree = 6.45 MB, solutions = 0)
    401   384   1.53387e+08   464                      0.0000   960473         
    405   388   294985.0000   400                      0.0000   969726         

Zero-half cuts applied:  31
Gomory fractional cuts applied:  1

Root node processing (before b&c):
  Real time             =   42.21 sec. (45809.63 ticks)
Sequential b&c:
  Real time             =  557.79 sec. (553965.70 ticks)
                          ------------
Total (root+branch&cut) =  600.00 sec. (599775.33 ticks)
Violation-free sequence bound:	300
Unscheduled:	0
Status:	Unknown
Time:	599.98
Sequence:
Violation-free sequence:
